certificates/rado_a13_c191_N35.cnf
c Rad2 upper bound instance: x1 + 13*x2 - x3 = 191, interval [1,35]
p cnf 35 186
1 5 15 0
-1 -5 -15 0
1 16 18 0
-1 -16 -18 0
1 17 31 0
-1 -17 -31 0
2 6 15 0
-2 -6 -15 0
2 16 19 0
-2 -16 -19 0
2 17 32 0
-2 -17 -32 0
3 7 15 0
-3 -7 -15 0
3 16 20 0
-3 -16 -20 0
3 17 33 0
-3 -17 -33 0
4 8 15 0
-4 -8 -15 0
4 16 21 0
-4 -16 -21 0
4 17 34 0
-4 -17 -34 0
5 9 15 0
-5 -9 -15 0
5 16 22 0
-5 -16 -22 0
5 17 35 0
-5 -17 -35 0
6 10 15 0
-6 -10 -15 0
6 16 23 0
-6 -16 -23 0
7 11 15 0
-7 -11 -15 0
7 16 24 0
-7 -16 -24 0
8 12 15 0
-8 -12 -15 0
8 16 25 0
-8 -16 -25 0
9 13 15 0
-9 -13 -15 0
9 16 26 0
-9 -16 -26 0
1 10 14 0
-1 -10 -14 0
10 14 15 0
-10 -14 -15 0
10 16 27 0
-10 -16 -27 0
2 11 14 0
-2 -11 -14 0
11 15 0
-11 -15 0
11 16 28 0
-11 -16 -28 0
3 12 14 0
-3 -12 -14 0
12 15 16 0
-12 -15 -16 0
12 16 29 0
-12 -16 -29 0
4 13 14 0
-4 -13 -14 0
13 15 17 0
-13 -15 -17 0
13 16 30 0
-13 -16 -30 0
5 14 0
-5 -14 0
14 15 18 0
-14 -15 -18 0
14 16 31 0
-14 -16 -31 0
6 14 15 0
-6 -14 -15 0
15 19 0
-15 -19 0
15 16 32 0
-15 -16 -32 0
7 14 16 0
-7 -14 -16 0
15 16 20 0
-15 -16 -20 0
16 33 0
-16 -33 0
8 14 17 0
-8 -14 -17 0
15 17 21 0
-15 -17 -21 0
16 17 34 0
-16 -17 -34 0
9 14 18 0
-9 -14 -18 0
15 18 22 0
-15 -18 -22 0
16 18 35 0
-16 -18 -35 0
10 14 19 0
-10 -14 -19 0
15 19 23 0
-15 -19 -23 0
11 14 20 0
-11 -14 -20 0
15 20 24 0
-15 -20 -24 0
12 14 21 0
-12 -14 -21 0
15 21 25 0
-15 -21 -25 0
13 14 22 0
-13 -14 -22 0
15 22 26 0
-15 -22 -26 0
1 13 23 0
-1 -13 -23 0
14 23 0
-14 -23 0
15 23 27 0
-15 -23 -27 0
2 13 24 0
-2 -13 -24 0
14 15 24 0
-14 -15 -24 0
15 24 28 0
-15 -24 -28 0
3 13 25 0
-3 -13 -25 0
14 16 25 0
-14 -16 -25 0
15 25 29 0
-15 -25 -29 0
4 13 26 0
-4 -13 -26 0
14 17 26 0
-14 -17 -26 0
15 26 30 0
-15 -26 -30 0
5 13 27 0
-5 -13 -27 0
14 18 27 0
-14 -18 -27 0
15 27 31 0
-15 -27 -31 0
6 13 28 0
-6 -13 -28 0
14 19 28 0
-14 -19 -28 0
15 28 32 0
-15 -28 -32 0
7 13 29 0
-7 -13 -29 0
14 20 29 0
-14 -20 -29 0
15 29 33 0
-15 -29 -33 0
8 13 30 0
-8 -13 -30 0
14 21 30 0
-14 -21 -30 0
15 30 34 0
-15 -30 -34 0
9 13 31 0
-9 -13 -31 0
14 22 31 0
-14 -22 -31 0
15 31 35 0
-15 -31 -35 0
10 13 32 0
-10 -13 -32 0
14 23 32 0
-14 -23 -32 0
11 13 33 0
-11 -13 -33 0
14 24 33 0
-14 -24 -33 0
12 13 34 0
-12 -13 -34 0
14 25 34 0
-14 -25 -34 0
13 35 0
-13 -35 0
14 26 35 0
-14 -26 -35 0
