certificates/rado_a13_c191_N35.drat
16 -34 -35 0
-34 -35 0
d 16 -34 -35 0
33 -12 0
-35 0
13 0
-33 34 0
34 0
-12 0
33 0
-16 0
-11 0
18 0
15 0
29 0
28 0
-22 0
-14 0
-19 0
-9 0
-17 0
-30 0
0
